eil50.tsp
NAME : eil101
COMMENT : 101-city problem (Christofides/Eilon)
TYPE : TSP
DIMENSION : 101
EDGE_WEIGHT_TYPE : EUC_2D
NODE_COORD_SECTION
1 41 49
2 35 17
3 55 45
4 55 20
5 15 30
6 25 30
7 20 50
8 10 43
9 55 60
10 30 60
11 20 65
12 50 35
13 30 25
14 15 10
15 30 5
16 10 20
17 5 30
18 20 40
19 15 60
20 45 65
21 45 20
22 45 10
23 55 5
24 65 35
25 65 20
26 45 30
27 35 40
28 41 37
29 64 42
30 40 60
31 31 52
32 35 69
33 53 52
34 65 55
35 63 65
36 2 60
37 20 20
38 5 5
39 60 12
40 40 25
41 42 7
42 24 12
43 23 3
44 11 14
45 6 38
46 2 48
47 8 56
48 13 52
49 6 68
50 47 47
EOF
