eil50.txt
############### GRAFO CARGADO #################
     1     2     3     4     5     6     7     8     9     10
1    999999999999    32.56    14.56    32.2    32.2    24.84    21.02    31.58    17.8    15.56    
2    32.56    999999999999    34.41    20.22    23.85    16.4    36.25    36.07    47.42    43.29    
3    14.56    34.41    999999999999    25.0    42.72    33.54    35.36    45.04    15.0    29.15    
4    32.2    20.22    25.0    999999999999    41.23    31.62    46.1    50.54    40.0    47.17    
5    32.2    23.85    42.72    41.23    999999999999    10.0    20.62    13.93    50.0    33.54    
6    24.84    16.4    33.54    31.62    10.0    999999999999    20.62    19.85    42.43    30.41    
7    21.02    36.25    35.36    46.1    20.62    20.62    999999999999    12.21    36.4    14.14    
8    31.58    36.07    45.04    50.54    13.93    19.85    12.21    999999999999    48.1    26.25    
9    17.8    47.42    15.0    40.0    50.0    42.43    36.4    48.1    999999999999    25.0    
10    15.56    43.29    29.15    47.17    33.54    30.41    14.14    26.25    25.0    999999999999    

################ SOLUCION INICIAL #################
Vertices:        [1, 3, 9, 10, 7, 8, 5, 6, 2, 4]
Aristas:         [(1,3,14.56), (3,9,15.0), (9,10,25.0), (10,7,14.14), (7,8,12.21), (8,5,13.93), (5,6,10.0), (6,2,16.4), (2,4,20.22)]
Costo asociado:  173.66000000000003
################################ 100 ####################################
Vertices:        [1, 6, 9, 10, 7, 8, 5, 3, 2, 4]
Aristas:         [(1,6,24.84), (6,9,42.43), (9,10,25.0), (10,7,14.14), (7,8,12.21), (8,5,13.93), (5,3,42.72), (3,2,34.41), (2,4,20.22)]
Costo asociado:  262.1
-+-+-+-+-+-+-+-+-+ Lista TABÚ -+-+-+-+-+-+-+-+-+
Lista Tabu: [(7,1), (9,2), (10,1), (2,6), (5,5), (6,7), (3,6)]
################################ 200 ####################################
Vertices:        [1, 3, 6, 10, 7, 8, 5, 9, 2, 4]
Aristas:         [(1,3,14.56), (3,6,33.54), (6,10,30.41), (10,7,14.14), (7,8,12.21), (8,5,13.93), (5,9,50.0), (9,2,47.42), (2,4,20.22)]
Costo asociado:  268.63000000000005
-+-+-+-+-+-+-+-+-+ Lista TABÚ -+-+-+-+-+-+-+-+-+
Lista Tabu: [(5,4), (8,3), (10,5), (4,4), (3,6), (2,5), (9,7), (6,6)]
-+-+-+-+-+-+-+-+-+ Lista TABÚ -+-+-+-+-+-+-+-+-+
Lista Tabu: [(4,2), (7,1), (8,3), (9,2), (2,4), (3,3), (10,5), (5,4)]
################################ 400 ####################################
Vertices:        [1, 3, 9, 10, 4, 8, 5, 6, 2, 7]
Aristas:         [(1,3,14.56), (3,9,15.0), (9,10,25.0), (10,4,47.17), (4,8,50.54), (8,5,13.93), (5,6,10.0), (6,2,16.4), (2,7,36.25)]
Costo asociado:  249.87000000000003
-+-+-+-+-+-+-+-+-+ Lista TABÚ -+-+-+-+-+-+-+-+-+
Lista Tabu: [(9,1), (8,2), (3,1), (5,3), (2,2), (4,7), (7,6)]
################################ 500 ####################################
Vertices:        [1, 3, 9, 2, 7, 8, 5, 6, 10, 4]
Aristas:         [(1,3,14.56), (3,9,15.0), (9,2,47.42), (2,7,36.25), (7,8,12.21), (8,5,13.93), (5,6,10.0), (6,10,30.41), (10,4,47.17)]
Costo asociado:  259.15
-+-+-+-+-+-+-+-+-+ Lista TABÚ -+-+-+-+-+-+-+-+-+
Lista Tabu: [(6,1), (9,5), (7,4), (5,6), (8,5), (2,7), (10,6)]
-+-+-+-+-+-+-+-+-+ Lista TABÚ -+-+-+-+-+-+-+-+-+
Lista Tabu: [(8,3), (6,2), (4,4), (5,3), (10,5), (2,4), (9,6), (7,5)]
-+-+-+-+-+-+-+-+-+ Lista TABÚ -+-+-+-+-+-+-+-+-+
Lista Tabu: [(3,1), (8,2), (10,1), (9,3), (6,2), (4,4), (5,3)]
################################ 800 ####################################
Vertices:        [1, 3, 9, 10, 7, 8, 2, 6, 5, 4]
Aristas:         [(1,3,14.56), (3,9,15.0), (9,10,25.0), (10,7,14.14), (7,8,12.21), (8,2,36.07), (2,6,16.4), (6,5,10.0), (5,4,41.23)]
Costo asociado:  216.81
-+-+-+-+-+-+-+-+-+ Lista TABÚ -+-+-+-+-+-+-+-+-+
Lista Tabu: [(9,1), (4,2), (6,1), (8,6), (10,5), (2,7), (5,6)]
################################ 900 ####################################
Vertices:        [1, 3, 6, 10, 7, 8, 5, 9, 2, 4]
Aristas:         [(1,3,14.56), (3,6,33.54), (6,10,30.41), (10,7,14.14), (7,8,12.21), (8,5,13.93), (5,9,50.0), (9,2,47.42), (2,4,20.22)]
Costo asociado:  268.63000000000005
-+-+-+-+-+-+-+-+-+ Lista TABÚ -+-+-+-+-+-+-+-+-+
Lista Tabu: [(8,4), (5,3), (10,5), (4,4), (2,6), (7,5), (9,7), (6,6)]
-+-+-+-+-+-+-+-+-+ Lista TABÚ -+-+-+-+-+-+-+-+-+
Lista Tabu: [(7,2), (8,1), (10,3), (3,2), (4,4), (5,3), (2,5), (9,4)]

################################ Solucion Optima ####################################
Vertices:        [1, 3, 9, 10, 7, 8, 5, 6, 2, 4]
Aristas:         [(1,3,14.56), (3,9,15.0), (9,10,25.0), (10,7,14.14), (7,8,12.21), (8,5,13.93), (5,6,10.0), (6,2,16.4), (2,4,20.22)]
Costo asociado:  173.66000000000003

Nro Intercambios: 6           Maximas Iteraciones: 1000
Tenure ADD: 7           Tenure DROP: 6
Tiempo total: 0min 2seg
